p cnf 200 1110
-101 75 0
-101 -17 0
-101 -3 0
-101 -30 0
-101 5 0
-101 -6 0
-101 51 0
-101 -77 0
-101 -21 0
-101 -12 0
101 -75 17 3 30 -5 6 -51 77 21 12 0
-102 80 0
-102 83 0
-102 -38 0
-102 34 0
-102 -99 0
-102 25 0
-102 88 0
-102 57 0
-102 77 0
-102 -15 0
102 -80 -83 38 -34 99 -25 -88 -57 -77 15 0
-103 57 0
-103 -47 0
-103 -66 0
-103 -25 0
-103 -18 0
-103 85 0
-103 38 0
-103 50 0
-103 45 0
-103 11 0
103 -57 47 66 25 18 -85 -38 -50 -45 -11 0
-104 -89 0
-104 -10 0
-104 54 0
-104 4 0
-104 56 0
-104 33 0
-104 72 0
-104 13 0
-104 -22 0
-104 -44 0
104 89 10 -54 -4 -56 -33 -72 -13 22 44 0
-105 -46 0
-105 -4 0
-105 -37 0
-105 -5 0
-105 96 0
-105 27 0
-105 -41 0
-105 -84 0
-105 -57 0
-105 44 0
105 46 4 37 5 -96 -27 41 84 57 -44 0
-106 38 0
-106 -69 0
-106 -65 0
-106 -31 0
-106 95 0
-106 -74 0
-106 90 0
-106 21 0
-106 3 0
-106 -56 0
106 -38 69 65 31 -95 74 -90 -21 -3 56 0
-107 76 0
-107 -73 0
-107 20 0
-107 67 0
-107 62 0
-107 -43 0
-107 -7 0
-107 -64 0
-107 -52 0
-107 -10 0
107 -76 73 -20 -67 -62 43 7 64 52 10 0
-108 25 0
-108 -72 0
-108 -45 0
-108 -8 0
-108 -2 0
-108 -31 0
-108 96 0
-108 26 0
-108 50 0
-108 47 0
108 -25 72 45 8 2 31 -96 -26 -50 -47 0
-109 88 0
-109 -62 0
-109 57 0
-109 -77 0
-109 -94 0
-109 70 0
-109 -16 0
-109 -8 0
-109 -55 0
-109 -48 0
109 -88 62 -57 77 94 -70 16 8 55 48 0
-110 75 0
-110 -95 0
-110 32 0
-110 41 0
-110 11 0
-110 -81 0
-110 20 0
-110 100 0
-110 -3 0
-110 -56 0
110 -75 95 -32 -41 -11 81 -20 -100 3 56 0
101 102 103 104 105 106 107 108 109 110 0
-111 28 0
-111 -76 0
-111 55 0
-111 98 0
-111 85 0
-111 -53 0
-111 -82 0
-111 9 0
-111 92 0
-111 5 0
111 -28 76 -55 -98 -85 53 82 -9 -92 -5 0
-112 -22 0
-112 -17 0
-112 -68 0
-112 18 0
-112 28 0
-112 88 0
-112 57 0
-112 99 0
-112 71 0
-112 77 0
112 22 17 68 -18 -28 -88 -57 -99 -71 -77 0
-113 43 0
-113 75 0
-113 -56 0
-113 71 0
-113 -63 0
-113 -19 0
-113 87 0
-113 13 0
-113 26 0
-113 -22 0
113 -43 -75 56 -71 63 19 -87 -13 -26 22 0
-114 69 0
-114 44 0
-114 91 0
-114 -52 0
-114 10 0
-114 82 0
-114 42 0
-114 -65 0
-114 70 0
-114 19 0
114 -69 -44 -91 52 -10 -82 -42 65 -70 -19 0
-115 -36 0
-115 1 0
-115 -81 0
-115 83 0
-115 99 0
-115 -64 0
-115 -45 0
-115 49 0
-115 -37 0
-115 56 0
115 36 -1 81 -83 -99 64 45 -49 37 -56 0
-116 -48 0
-116 63 0
-116 86 0
-116 -79 0
-116 80 0
-116 61 0
-116 32 0
-116 -24 0
-116 29 0
-116 57 0
116 48 -63 -86 79 -80 -61 -32 24 -29 -57 0
-117 36 0
-117 55 0
-117 62 0
-117 33 0
-117 -8 0
-117 -43 0
-117 37 0
-117 2 0
-117 4 0
-117 49 0
117 -36 -55 -62 -33 8 43 -37 -2 -4 -49 0
-118 -22 0
-118 -57 0
-118 26 0
-118 27 0
-118 28 0
-118 -41 0
-118 -56 0
-118 4 0
-118 50 0
-118 82 0
118 22 57 -26 -27 -28 41 56 -4 -50 -82 0
-119 3 0
-119 56 0
-119 -17 0
-119 -82 0
-119 23 0
-119 -46 0
-119 -72 0
-119 -95 0
-119 67 0
-119 -59 0
119 -3 -56 17 82 -23 46 72 95 -67 59 0
-120 -21 0
-120 -1 0
-120 -79 0
-120 82 0
-120 67 0
-120 86 0
-120 14 0
-120 -64 0
-120 88 0
-120 -55 0
120 21 1 79 -82 -67 -86 -14 64 -88 55 0
111 112 113 114 115 116 117 118 119 120 0
-121 -67 0
-121 74 0
-121 -83 0
-121 -39 0
-121 -25 0
-121 17 0
-121 -40 0
-121 51 0
-121 34 0
-121 16 0
121 67 -74 83 39 25 -17 40 -51 -34 -16 0
-122 37 0
-122 70 0
-122 49 0
-122 100 0
-122 18 0
-122 13 0
-122 93 0
-122 -34 0
-122 96 0
-122 -53 0
122 -37 -70 -49 -100 -18 -13 -93 34 -96 53 0
-123 -39 0
-123 -89 0
-123 27 0
-123 31 0
-123 93 0
-123 -75 0
-123 42 0
-123 24 0
-123 66 0
-123 -84 0
123 39 89 -27 -31 -93 75 -42 -24 -66 84 0
-124 -95 0
-124 67 0
-124 -34 0
-124 -23 0
-124 42 0
-124 3 0
-124 69 0
-124 2 0
-124 55 0
-124 -52 0
124 95 -67 34 23 -42 -3 -69 -2 -55 52 0
-125 -80 0
-125 23 0
-125 82 0
-125 6 0
-125 -9 0
-125 -43 0
-125 -72 0
-125 -96 0
-125 38 0
-125 -5 0
125 80 -23 -82 -6 9 43 72 96 -38 5 0
-126 73 0
-126 -80 0
-126 26 0
-126 37 0
-126 34 0
-126 53 0
-126 93 0
-126 23 0
-126 61 0
-126 -38 0
126 -73 80 -26 -37 -34 -53 -93 -23 -61 38 0
-127 -6 0
-127 39 0
-127 -57 0
-127 -58 0
-127 -3 0
-127 -43 0
-127 -21 0
-127 72 0
-127 -23 0
-127 -86 0
127 6 -39 57 58 3 43 21 -72 23 86 0
-128 90 0
-128 -58 0
-128 69 0
-128 81 0
-128 -31 0
-128 79 0
-128 19 0
-128 25 0
-128 30 0
-128 91 0
128 -90 58 -69 -81 31 -79 -19 -25 -30 -91 0
-129 16 0
-129 14 0
-129 30 0
-129 -59 0
-129 -10 0
-129 -72 0
-129 100 0
-129 11 0
-129 70 0
-129 -2 0
129 -16 -14 -30 59 10 72 -100 -11 -70 2 0
-130 8 0
-130 90 0
-130 2 0
-130 16 0
-130 19 0
-130 -65 0
-130 -18 0
-130 -62 0
-130 96 0
-130 53 0
130 -8 -90 -2 -16 -19 65 18 62 -96 -53 0
121 122 123 124 125 126 127 128 129 130 0
-131 -35 0
-131 84 0
-131 -61 0
-131 -67 0
-131 -23 0
-131 -19 0
-131 63 0
-131 91 0
-131 -96 0
-131 -17 0
131 35 -84 61 67 23 19 -63 -91 96 17 0
-132 -73 0
-132 -65 0
-132 93 0
-132 16 0
-132 -64 0
-132 92 0
-132 51 0
-132 -17 0
-132 95 0
-132 -7 0
132 73 65 -93 -16 64 -92 -51 17 -95 7 0
-133 -34 0
-133 -63 0
-133 -99 0
-133 68 0
-133 -29 0
-133 92 0
-133 -8 0
-133 72 0
-133 -28 0
-133 -45 0
133 34 63 99 -68 29 -92 8 -72 28 45 0
-134 54 0
-134 -35 0
-134 13 0
-134 3 0
-134 -94 0
-134 46 0
-134 9 0
-134 -82 0
-134 80 0
-134 -30 0
134 -54 35 -13 -3 94 -46 -9 82 -80 30 0
-135 85 0
-135 -90 0
-135 -9 0
-135 -95 0
-135 -8 0
-135 97 0
-135 -20 0
-135 -100 0
-135 45 0
-135 86 0
135 -85 90 9 95 8 -97 20 100 -45 -86 0
-136 -86 0
-136 8 0
-136 99 0
-136 -26 0
-136 -72 0
-136 -28 0
-136 95 0
-136 -50 0
-136 85 0
-136 -84 0
136 86 -8 -99 26 72 28 -95 50 -85 84 0
-137 69 0
-137 37 0
-137 -2 0
-137 -55 0
-137 92 0
-137 -49 0
-137 -43 0
-137 21 0
-137 100 0
-137 -19 0
137 -69 -37 2 55 -92 49 43 -21 -100 19 0
-138 1 0
-138 -38 0
-138 64 0
-138 -69 0
-138 -60 0
-138 -10 0
-138 -68 0
-138 53 0
-138 -88 0
-138 57 0
138 -1 38 -64 69 60 10 68 -53 88 -57 0
-139 57 0
-139 9 0
-139 49 0
-139 -1 0
-139 41 0
-139 -42 0
-139 -17 0
-139 96 0
-139 50 0
-139 35 0
139 -57 -9 -49 1 -41 42 17 -96 -50 -35 0
-140 -62 0
-140 58 0
-140 20 0
-140 81 0
-140 -38 0
-140 -85 0
-140 -77 0
-140 -14 0
-140 -32 0
-140 80 0
140 62 -58 -20 -81 38 85 77 14 32 -80 0
131 132 133 134 135 136 137 138 139 140 0
-141 -75 0
-141 -45 0
-141 79 0
-141 -65 0
-141 -67 0
-141 30 0
-141 -57 0
-141 74 0
-141 83 0
-141 82 0
141 75 45 -79 65 67 -30 57 -74 -83 -82 0
-142 -44 0
-142 54 0
-142 -89 0
-142 -99 0
-142 4 0
-142 82 0
-142 48 0
-142 40 0
-142 -31 0
-142 -2 0
142 44 -54 89 99 -4 -82 -48 -40 31 2 0
-143 -41 0
-143 -14 0
-143 -22 0
-143 7 0
-143 -70 0
-143 -47 0
-143 -52 0
-143 -71 0
-143 10 0
-143 -28 0
143 41 14 22 -7 70 47 52 71 -10 28 0
-144 97 0
-144 -69 0
-144 73 0
-144 -100 0
-144 40 0
-144 11 0
-144 63 0
-144 29 0
-144 66 0
-144 22 0
144 -97 69 -73 100 -40 -11 -63 -29 -66 -22 0
-145 98 0
-145 19 0
-145 -60 0
-145 -50 0
-145 -34 0
-145 -46 0
-145 -85 0
-145 84 0
-145 -38 0
-145 -30 0
145 -98 -19 60 50 34 46 85 -84 38 30 0
-146 -15 0
-146 -65 0
-146 -1 0
-146 -14 0
-146 57 0
-146 41 0
-146 -88 0
-146 -92 0
-146 -56 0
-146 -87 0
146 15 65 1 14 -57 -41 88 92 56 87 0
-147 -84 0
-147 -24 0
-147 -87 0
-147 61 0
-147 -78 0
-147 10 0
-147 44 0
-147 74 0
-147 -64 0
-147 -75 0
147 84 24 87 -61 78 -10 -44 -74 64 75 0
-148 -35 0
-148 -58 0
-148 -39 0
-148 -64 0
-148 -40 0
-148 -86 0
-148 -4 0
-148 84 0
-148 10 0
-148 -38 0
148 35 58 39 64 40 86 4 -84 -10 38 0
-149 57 0
-149 31 0
-149 56 0
-149 -12 0
-149 83 0
-149 26 0
-149 23 0
-149 -72 0
-149 -63 0
-149 -67 0
149 -57 -31 -56 12 -83 -26 -23 72 63 67 0
-150 31 0
-150 -87 0
-150 -27 0
-150 -35 0
-150 -94 0
-150 66 0
-150 -16 0
-150 74 0
-150 -73 0
-150 -50 0
150 -31 87 27 35 94 -66 16 -74 73 50 0
141 142 143 144 145 146 147 148 149 150 0
-151 26 0
-151 -47 0
-151 35 0
-151 -95 0
-151 65 0
-151 43 0
-151 83 0
-151 72 0
-151 51 0
-151 64 0
151 -26 47 -35 95 -65 -43 -83 -72 -51 -64 0
-152 -41 0
-152 34 0
-152 58 0
-152 94 0
-152 53 0
-152 -10 0
-152 -15 0
-152 -22 0
-152 98 0
-152 -3 0
152 41 -34 -58 -94 -53 10 15 22 -98 3 0
-153 100 0
-153 83 0
-153 -14 0
-153 28 0
-153 73 0
-153 92 0
-153 24 0
-153 45 0
-153 -32 0
-153 54 0
153 -100 -83 14 -28 -73 -92 -24 -45 32 -54 0
-154 -17 0
-154 47 0
-154 -7 0
-154 21 0
-154 -94 0
-154 6 0
-154 -42 0
-154 -52 0
-154 54 0
-154 -76 0
154 17 -47 7 -21 94 -6 42 52 -54 76 0
-155 -19 0
-155 35 0
-155 -90 0
-155 -45 0
-155 36 0
-155 -66 0
-155 -18 0
-155 -86 0
-155 9 0
-155 17 0
155 19 -35 90 45 -36 66 18 86 -9 -17 0
-156 14 0
-156 -12 0
-156 -76 0
-156 67 0
-156 -72 0
-156 36 0
-156 -74 0
-156 49 0
-156 42 0
-156 -22 0
156 -14 12 76 -67 72 -36 74 -49 -42 22 0
-157 61 0
-157 46 0
-157 47 0
-157 20 0
-157 -29 0
-157 81 0
-157 -84 0
-157 37 0
-157 -53 0
-157 -88 0
157 -61 -46 -47 -20 29 -81 84 -37 53 88 0
-158 72 0
-158 -28 0
-158 -9 0
-158 13 0
-158 -22 0
-158 -92 0
-158 -51 0
-158 21 0
-158 75 0
-158 -27 0
158 -72 28 9 -13 22 92 51 -21 -75 27 0
-159 8 0
-159 -54 0
-159 51 0
-159 -78 0
-159 -65 0
-159 -38 0
-159 46 0
-159 76 0
-159 -77 0
-159 68 0
159 -8 54 -51 78 65 38 -46 -76 77 -68 0
-160 49 0
-160 100 0
-160 -87 0
-160 95 0
-160 39 0
-160 -5 0
-160 30 0
-160 -36 0
-160 -14 0
-160 -17 0
160 -49 -100 87 -95 -39 5 -30 36 14 17 0
151 152 153 154 155 156 157 158 159 160 0
-161 29 0
-161 -27 0
-161 28 0
-161 32 0
-161 13 0
-161 -61 0
-161 -64 0
-161 91 0
-161 98 0
-161 -23 0
161 -29 27 -28 -32 -13 61 64 -91 -98 23 0
-162 32 0
-162 14 0
-162 -81 0
-162 93 0
-162 18 0
-162 8 0
-162 -60 0
-162 -39 0
-162 73 0
-162 25 0
162 -32 -14 81 -93 -18 -8 60 39 -73 -25 0
-163 8 0
-163 41 0
-163 -83 0
-163 -6 0
-163 74 0
-163 98 0
-163 -91 0
-163 -31 0
-163 24 0
-163 87 0
163 -8 -41 83 6 -74 -98 91 31 -24 -87 0
-164 -77 0
-164 30 0
-164 -3 0
-164 -90 0
-164 70 0
-164 -71 0
-164 -48 0
-164 -13 0
-164 67 0
-164 35 0
164 77 -30 3 90 -70 71 48 13 -67 -35 0
-165 57 0
-165 14 0
-165 -30 0
-165 -23 0
-165 -7 0
-165 22 0
-165 -74 0
-165 32 0
-165 -71 0
-165 -15 0
165 -57 -14 30 23 7 -22 74 -32 71 15 0
-166 90 0
-166 -94 0
-166 -74 0
-166 92 0
-166 -98 0
-166 86 0
-166 75 0
-166 18 0
-166 67 0
-166 -42 0
166 -90 94 74 -92 98 -86 -75 -18 -67 42 0
-167 -73 0
-167 -82 0
-167 21 0
-167 62 0
-167 83 0
-167 -32 0
-167 -60 0
-167 70 0
-167 86 0
-167 59 0
167 73 82 -21 -62 -83 32 60 -70 -86 -59 0
-168 -50 0
-168 -52 0
-168 11 0
-168 87 0
-168 -48 0
-168 -96 0
-168 62 0
-168 -73 0
-168 70 0
-168 68 0
168 50 52 -11 -87 48 96 -62 73 -70 -68 0
-169 84 0
-169 -6 0
-169 -18 0
-169 -23 0
-169 2 0
-169 -50 0
-169 -21 0
-169 -16 0
-169 41 0
-169 17 0
169 -84 6 18 23 -2 50 21 16 -41 -17 0
-170 99 0
-170 2 0
-170 -79 0
-170 60 0
-170 69 0
-170 62 0
-170 -32 0
-170 -20 0
-170 -18 0
-170 -38 0
170 -99 -2 79 -60 -69 -62 32 20 18 38 0
161 162 163 164 165 166 167 168 169 170 0
-171 82 0
-171 64 0
-171 39 0
-171 43 0
-171 42 0
-171 29 0
-171 -9 0
-171 -93 0
-171 27 0
-171 -14 0
171 -82 -64 -39 -43 -42 -29 9 93 -27 14 0
-172 39 0
-172 16 0
-172 -80 0
-172 -28 0
-172 67 0
-172 76 0
-172 -33 0
-172 -54 0
-172 87 0
-172 51 0
172 -39 -16 80 28 -67 -76 33 54 -87 -51 0
-173 56 0
-173 -52 0
-173 91 0
-173 -65 0
-173 -83 0
-173 -51 0
-173 -24 0
-173 32 0
-173 30 0
-173 -28 0
173 -56 52 -91 65 83 51 24 -32 -30 28 0
-174 -60 0
-174 -71 0
-174 -3 0
-174 46 0
-174 18 0
-174 84 0
-174 -44 0
-174 74 0
-174 -25 0
-174 -67 0
174 60 71 3 -46 -18 -84 44 -74 25 67 0
-175 60 0
-175 26 0
-175 89 0
-175 90 0
-175 31 0
-175 -5 0
-175 34 0
-175 -84 0
-175 -37 0
-175 63 0
175 -60 -26 -89 -90 -31 5 -34 84 37 -63 0
-176 11 0
-176 -80 0
-176 35 0
-176 -23 0
-176 -61 0
-176 -34 0
-176 -31 0
-176 -42 0
-176 90 0
-176 -94 0
176 -11 80 -35 23 61 34 31 42 -90 94 0
-177 -11 0
-177 87 0
-177 2 0
-177 49 0
-177 90 0
-177 66 0
-177 -5 0
-177 -25 0
-177 55 0
-177 -71 0
177 11 -87 -2 -49 -90 -66 5 25 -55 71 0
-178 56 0
-178 17 0
-178 -8 0
-178 -5 0
-178 11 0
-178 12 0
-178 24 0
-178 -89 0
-178 -90 0
-178 -25 0
178 -56 -17 8 5 -11 -12 -24 89 90 25 0
-179 -74 0
-179 -63 0
-179 -41 0
-179 10 0
-179 64 0
-179 9 0
-179 42 0
-179 -31 0
-179 -73 0
-179 -44 0
179 74 63 41 -10 -64 -9 -42 31 73 44 0
-180 -76 0
-180 -5 0
-180 -1 0
-180 48 0
-180 2 0
-180 64 0
-180 82 0
-180 89 0
-180 20 0
-180 -95 0
180 76 5 1 -48 -2 -64 -82 -89 -20 95 0
171 172 173 174 175 176 177 178 179 180 0
-181 42 0
-181 -51 0
-181 89 0
-181 -47 0
-181 22 0
-181 82 0
-181 -67 0
-181 26 0
-181 85 0
-181 -24 0
181 -42 51 -89 47 -22 -82 67 -26 -85 24 0
-182 1 0
-182 -64 0
-182 -59 0
-182 -92 0
-182 -62 0
-182 -42 0
-182 -9 0
-182 -65 0
-182 98 0
-182 85 0
182 -1 64 59 92 62 42 9 65 -98 -85 0
-183 -60 0
-183 88 0
-183 67 0
-183 87 0
-183 -53 0
-183 -56 0
-183 -71 0
-183 2 0
-183 34 0
-183 -27 0
183 60 -88 -67 -87 53 56 71 -2 -34 27 0
-184 53 0
-184 14 0
-184 44 0
-184 -57 0
-184 31 0
-184 -17 0
-184 -73 0
-184 -81 0
-184 -26 0
-184 70 0
184 -53 -14 -44 57 -31 17 73 81 26 -70 0
-185 -52 0
-185 -30 0
-185 47 0
-185 28 0
-185 -81 0
-185 -71 0
-185 -13 0
-185 -9 0
-185 55 0
-185 17 0
185 52 30 -47 -28 81 71 13 9 -55 -17 0
-186 -38 0
-186 2 0
-186 -6 0
-186 -47 0
-186 -81 0
-186 51 0
-186 -9 0
-186 -88 0
-186 27 0
-186 89 0
186 38 -2 6 47 81 -51 9 88 -27 -89 0
-187 -87 0
-187 58 0
-187 68 0
-187 -5 0
-187 -67 0
-187 -83 0
-187 84 0
-187 52 0
-187 85 0
-187 -27 0
187 87 -58 -68 5 67 83 -84 -52 -85 27 0
-188 64 0
-188 -18 0
-188 -44 0
-188 -59 0
-188 -76 0
-188 17 0
-188 -56 0
-188 6 0
-188 33 0
-188 45 0
188 -64 18 44 59 76 -17 56 -6 -33 -45 0
-189 -3 0
-189 -39 0
-189 -97 0
-189 -79 0
-189 74 0
-189 -4 0
-189 19 0
-189 -80 0
-189 -34 0
-189 -94 0
189 3 39 97 79 -74 4 -19 80 34 94 0
-190 98 0
-190 44 0
-190 29 0
-190 15 0
-190 43 0
-190 41 0
-190 -88 0
-190 -54 0
-190 -49 0
-190 47 0
190 -98 -44 -29 -15 -43 -41 88 54 49 -47 0
181 182 183 184 185 186 187 188 189 190 0
-191 17 0
-191 -40 0
-191 -78 0
-191 -6 0
-191 -39 0
-191 44 0
-191 99 0
-191 80 0
-191 30 0
-191 18 0
191 -17 40 78 6 39 -44 -99 -80 -30 -18 0
-192 1 0
-192 45 0
-192 -47 0
-192 74 0
-192 -16 0
-192 -94 0
-192 -27 0
-192 -79 0
-192 -43 0
-192 -60 0
192 -1 -45 47 -74 16 94 27 79 43 60 0
-193 48 0
-193 -14 0
-193 -85 0
-193 96 0
-193 -36 0
-193 -73 0
-193 -25 0
-193 38 0
-193 91 0
-193 62 0
193 -48 14 85 -96 36 73 25 -38 -91 -62 0
-194 43 0
-194 -35 0
-194 10 0
-194 -100 0
-194 -3 0
-194 -36 0
-194 -44 0
-194 -27 0
-194 -63 0
-194 -30 0
194 -43 35 -10 100 3 36 44 27 63 30 0
-195 -49 0
-195 9 0
-195 -81 0
-195 58 0
-195 -26 0
-195 -65 0
-195 12 0
-195 -84 0
-195 94 0
-195 -100 0
195 49 -9 81 -58 26 65 -12 84 -94 100 0
-196 2 0
-196 -81 0
-196 -84 0
-196 23 0
-196 9 0
-196 43 0
-196 -4 0
-196 -90 0
-196 -75 0
-196 69 0
196 -2 81 84 -23 -9 -43 4 90 75 -69 0
-197 1 0
-197 29 0
-197 63 0
-197 -53 0
-197 -85 0
-197 -3 0
-197 4 0
-197 -87 0
-197 -38 0
-197 64 0
197 -1 -29 -63 53 85 3 -4 87 38 -64 0
-198 -50 0
-198 17 0
-198 -57 0
-198 40 0
-198 34 0
-198 -3 0
-198 67 0
-198 -63 0
-198 -44 0
-198 10 0
198 50 -17 57 -40 -34 3 -67 63 44 -10 0
-199 70 0
-199 60 0
-199 52 0
-199 -66 0
-199 90 0
-199 -24 0
-199 16 0
-199 -98 0
-199 -37 0
-199 -58 0
199 -70 -60 -52 66 -90 24 -16 98 37 58 0
-200 22 0
-200 -92 0
-200 93 0
-200 74 0
-200 -23 0
-200 -31 0
-200 -86 0
-200 16 0
-200 36 0
-200 51 0
200 -22 92 -93 -74 23 31 86 -16 -36 -51 0
191 192 193 194 195 196 197 198 199 200 0
